2709185
58,47,53,0,48,22,11,1,26,44,64,3,15,27,43,9,56,17,13,30,37,65,10,63,66,40,5,59,39,19,14,7,49,38,61,50,36,52,34,67,62,33,54,25,18,4,55,31,46,12,23,2,6,45,42,51,32,21,20,60,41,28,29,24,16,8,57,35
